c This is QMaxSAT 2017 based on 14.07
c This is Glucose 3.0
c This is MiniSat 2.2.0
c WARNING: for repeatability, setting FPU to use double precision
c card = mrwto, comp = 0, pmodel = 0, narr = 15, mct = 99, verb = 0
cr firstCPXsol 0 0 0
c top = 824631
c |  Number of variables:    25538                                            |
c |  Number of clauses:      2618737                                          |
c |  Weight of hard clauses: 824631                                           |
c |  Number of soft clauses: 186690                                           |
c |  Number of unit soft clauses: 0                                           |
c |  Maximum Cardinality (by unit): 17353170     (0           )               |
c last restart ## conflicts  :  0 5671 
o 5201 | cpuTime 0.441227 s
c Sum of weights = 1156878
c A number of soft clauses remained = 12446
c MRWTO encoding for Pseudo-Boolean Constraints
c sizeMax=5201
c No.0 Divisor=9	generated by pow1
c No.1 Divisor=9	generated by pow1
c No.2 Divisor=9	generated by pow1
c No.3 Divisor=9	generated by pow1
c p0= 9	p1= 9	p2= 9	p3= 9	
c number of digits = 5
c linkingVar[0].size = 9, linkingVar[1].size = 9, linkingVar[2].size = 9, linkingVar[3].size = 8, linkingVar[4].size = 1, 
c Pseudo-Boolean Constraints: 282166 variables and 2108965 clauses
c Sum of weights = 1156878
c A number of soft clauses remained = 12446
c MRWTO encoding for Pseudo-Boolean Constraints
c sizeMax=5201
c No.0 Divisor=9	generated by pow1
c No.1 Divisor=9	generated by pow1
c No.2 Divisor=9	generated by pow1
c No.3 Divisor=9	generated by pow1
c p0= 9	p1= 9	p2= 9	p3= 9	
c number of digits = 5
c linkingVar[0].size = 9, linkingVar[1].size = 9, linkingVar[2].size = 9, linkingVar[3].size = 8, linkingVar[4].size = 1, 
c Pseudo-Boolean Constraints: 282166 variables and 2108965 clauses
c Sum of weights = 1156878
c A number of soft clauses remained = 12446
c MRWTO encoding for Pseudo-Boolean Constraints
c sizeMax=5201
c No.0 Divisor=9	generated by pow1
c No.1 Divisor=9	generated by pow1
c No.2 Divisor=9	generated by pow1
c No.3 Divisor=9	generated by pow1
c p0= 9	p1= 9	p2= 9	p3= 9	
c number of digits = 5
c linkingVar[0].size = 9, linkingVar[1].size = 9, linkingVar[2].size = 9, linkingVar[3].size = 8, linkingVar[4].size = 1, 
c Pseudo-Boolean Constraints: 282166 variables and 2108965 clauses
c Sum of weights = 1156878
c A number of soft clauses remained = 12446
c MRWTO encoding for Pseudo-Boolean Constraints
c sizeMax=5201
c No.0 Divisor=9	generated by pow1
c No.1 Divisor=9	generated by pow1
c No.2 Divisor=9	generated by pow1
c No.3 Divisor=9	generated by pow1
c p0= 9	p1= 9	p2= 9	p3= 9	
c number of digits = 5
c linkingVar[0].size = 9, linkingVar[1].size = 9, linkingVar[2].size = 9, linkingVar[3].size = 8, linkingVar[4].size = 1, 
c Pseudo-Boolean Constraints: 282166 variables and 2108965 clauses
c Sum of weights = 1156878
c A number of soft clauses remained = 12446
c MRWTO encoding for Pseudo-Boolean Constraints
c sizeMax=5201
c No.0 Divisor=9	generated by pow1
c No.1 Divisor=9	generated by pow1
c No.2 Divisor=9	generated by pow1
c No.3 Divisor=9	generated by pow1
c p0= 9	p1= 9	p2= 9	p3= 9	
c number of digits = 5
c linkingVar[0].size = 9, linkingVar[1].size = 9, linkingVar[2].size = 9, linkingVar[3].size = 8, linkingVar[4].size = 1, 
c Pseudo-Boolean Constraints: 282166 variables and 2108965 clauses
c Sum of weights = 1156878
c A number of soft clauses remained = 12446
c MRWTO encoding for Pseudo-Boolean Constraints
c sizeMax=5201
c No.0 Divisor=9	generated by pow1
c No.1 Divisor=9	generated by pow1
c No.2 Divisor=9	generated by pow1
c No.3 Divisor=9	generated by pow1
c p0= 9	p1= 9	p2= 9	p3= 9	
c number of digits = 5
c linkingVar[0].size = 9, linkingVar[1].size = 9, linkingVar[2].size = 9, linkingVar[3].size = 8, linkingVar[4].size = 1, 
c Pseudo-Boolean Constraints: 282166 variables and 2108965 clauses
c Sum of weights = 1156878
c A number of soft clauses remained = 12446
c MRWTO encoding for Pseudo-Boolean Constraints
c sizeMax=5201
c No.0 Divisor=9	generated by pow1
c No.1 Divisor=9	generated by pow1
c No.2 Divisor=9	generated by pow1
c No.3 Divisor=9	generated by pow1
c p0= 9	p1= 9	p2= 9	p3= 9	
c number of digits = 5
c linkingVar[0].size = 9, linkingVar[1].size = 9, linkingVar[2].size = 9, linkingVar[3].size = 8, linkingVar[4].size = 1, 
c Pseudo-Boolean Constraints: 282166 variables and 2108965 clauses
c Sum of weights = 1156878
c A number of soft clauses remained = 12446
c MRWTO encoding for Pseudo-Boolean Constraints
c sizeMax=5201
c No.0 Divisor=9	generated by pow1
c No.1 Divisor=9	generated by pow1
c No.2 Divisor=9	generated by pow1
c No.3 Divisor=9	generated by pow1
c p0= 9	p1= 9	p2= 9	p3= 9	
c number of digits = 5
c linkingVar[0].size = 9, linkingVar[1].size = 9, linkingVar[2].size = 9, linkingVar[3].size = 8, linkingVar[4].size = 1, 
c Pseudo-Boolean Constraints: 282166 variables and 2108965 clauses
c Sum of weights = 1156878
c A number of soft clauses remained = 12446
c MRWTO encoding for Pseudo-Boolean Constraints
c sizeMax=5201
c No.0 Divisor=9	generated by pow1
c No.1 Divisor=9	generated by pow1
c No.2 Divisor=9	generated by pow1
c No.3 Divisor=9	generated by pow1
c p0= 9	p1= 9	p2= 9	p3= 9	
c number of digits = 5
c linkingVar[0].size = 9, linkingVar[1].size = 9, linkingVar[2].size = 9, linkingVar[3].size = 8, linkingVar[4].size = 1, 
c Pseudo-Boolean Constraints: 282166 variables and 2108965 clauses
c Sum of weights = 1156878
c A number of soft clauses remained = 12446
c MRWTO encoding for Pseudo-Boolean Constraints
c sizeMax=5201
c No.0 Divisor=9	generated by pow1
c No.1 Divisor=9	generated by pow1
c No.2 Divisor=9	generated by pow1
c No.3 Divisor=9	generated by pow1
c p0= 9	p1= 9	p2= 9	p3= 9	
c number of digits = 5
c linkingVar[0].size = 9, linkingVar[1].size = 9, linkingVar[2].size = 9, linkingVar[3].size = 8, linkingVar[4].size = 1, 
c Pseudo-Boolean Constraints: 282166 variables and 2108965 clauses
c Sum of weights = 1156878
c A number of soft clauses remained = 12446
c MRWTO encoding for Pseudo-Boolean Constraints
c sizeMax=5201
c No.0 Divisor=9	generated by pow1
c No.1 Divisor=9	generated by pow1
c No.2 Divisor=9	generated by pow1
c No.3 Divisor=9	generated by pow1
c p0= 9	p1= 9	p2= 9	p3= 9	
c number of digits = 5
c linkingVar[0].size = 9, linkingVar[1].size = 9, linkingVar[2].size = 9, linkingVar[3].size = 8, linkingVar[4].size = 1, 
c Pseudo-Boolean Constraints: 282166 variables and 2108965 clauses
c Sum of weights = 1156878
c A number of soft clauses remained = 12446
c MRWTO encoding for Pseudo-Boolean Constraints
c sizeMax=5201
c No.0 Divisor=9	generated by pow1
c No.1 Divisor=9	generated by pow1
c No.2 Divisor=9	generated by pow1
c No.3 Divisor=9	generated by pow1
c p0= 9	p1= 9	p2= 9	p3= 9	
c number of digits = 5
c linkingVar[0].size = 9, linkingVar[1].size = 9, linkingVar[2].size = 9, linkingVar[3].size = 8, linkingVar[4].size = 1, 
c Pseudo-Boolean Constraints: 282166 variables and 2108965 clauses
c Sum of weights = 1156878
c A number of soft clauses remained = 12446
c MRWTO encoding for Pseudo-Boolean Constraints
c sizeMax=5201
c No.0 Divisor=9	generated by pow1
c No.1 Divisor=9	generated by pow1
c No.2 Divisor=9	generated by pow1
c No.3 Divisor=9	generated by pow1
c p0= 9	p1= 9	p2= 9	p3= 9	
c number of digits = 5
c linkingVar[0].size = 9, linkingVar[1].size = 9, linkingVar[2].size = 9, linkingVar[3].size = 8, linkingVar[4].size = 1, 
c Pseudo-Boolean Constraints: 282166 variables and 2108965 clauses
c Sum of weights = 1156878
c A number of soft clauses remained = 12446
c MRWTO encoding for Pseudo-Boolean Constraints
c sizeMax=5201
c No.0 Divisor=9	generated by pow1
c No.1 Divisor=9	generated by pow1
c No.2 Divisor=9	generated by pow1
c No.3 Divisor=9	generated by pow1
c p0= 9	p1= 9	p2= 9	p3= 9	
c number of digits = 5
c linkingVar[0].size = 9, linkingVar[1].size = 9, linkingVar[2].size = 9, linkingVar[3].size = 8, linkingVar[4].size = 1, 
c Pseudo-Boolean Constraints: 282166 variables and 2108965 clauses
c Sum of weights = 1156878
c A number of soft clauses remained = 12446
c MRWTO encoding for Pseudo-Boolean Constraints
c sizeMax=5201
c No.0 Divisor=9	generated by pow1
c No.1 Divisor=9	generated by pow1
c No.2 Divisor=9	generated by pow1
c No.3 Divisor=9	generated by pow1
c p0= 9	p1= 9	p2= 9	p3= 9	
c number of digits = 5
c linkingVar[0].size = 9, linkingVar[1].size = 9, linkingVar[2].size = 9, linkingVar[3].size = 8, linkingVar[4].size = 1, 
c Pseudo-Boolean Constraints: 282166 variables and 2108965 clauses
c last restart ## conflicts  :  299 58250 
o 1586 | cpuTime 15.5682 s
c last restart ## conflicts  :  813 79636 
o 1533 | cpuTime 78.2103 s
c last restart ## conflicts  :  857 79575 
o 1464 | cpuTime 147.576 s
c last restart ## conflicts  :  294 63668 
o 1408 | cpuTime 371.654 s
c last restart ## conflicts  :  571 38219 
o 1370 | cpuTime 415.345 s
c last restart ## conflicts  :  477 132366 
o 1024 | cpuTime 514.421 s
c last restart ## conflicts  :  421 69119 
o 862 | cpuTime 663.581 s
s UNKNOWN
c Search is stopped by a limit (maybe time-limit)
cr positiVarArr: [ | 98(1->84) | 222(1->95) | 285(1->45) | 400(1->47) | 528(1->62) | 633(1->54) | 714(1->22) | 839(1->34) | 920(1->2) | 1111(1->80) | 1158(1->14) | 1307(1->50) | 1379(1->9) | 1546(1->63) | 1648(1->52) | 1696(2->1) | 1817(3->1) | 1929(4->1) | 2041(5->1) | 2166(6->5) | 2289(7->15) | 2415(8->28) | 2525(9->25) | 2633(10->20) | 2716(11->1) | 2827(12->1) | 2962(13->10) | 3081(14->16) | 3189(15->11) | 3374(16->83) | 3435(17->31) | 3552(18->35) | 3659(19->29) | 3809(20->66) | 3875(21->19) | 4051(22->82) | 4095(23->13) | 4218(24->23) | 4335(25->27) | 4445(26->24) | 4560(27->26) | 4738(28->91) | 4800(29->40) | 4906(30->33) | 5018(31->32) | 5117(32->18) | 5254(33->42) | 5366(34->41) | 5474(35->36) | 5548(36->1) | 5713(37->49) | 5768(38->1) | 5928(39->38) | 6101(40->98) | 6159(41->43) | 6225(42->1) | 6331(43->1) | 6540(44->85) | 6612(45->44) | 6736(46->55) | 6842(47->48) | 6899(48->1) | 7019(49->1) | 7193(50->60) | 7246(51->1) | 7423(52->64) | 7518(53->46) | 7662(54->77) | 7771(55->73) | 7876(56->65) | 7980(57->56) | 8094(58->57) | 8211(59->61) | 8314(60->51) | 8463(61->87) | 8556(62->67) | 8610(63->8) | 8789(64->74) | 8909(65->81) | 8980(66->39) | 9122(67->68) | 9226(68->59) | 9350(69->70) | 9451(70->58) | 9575(71->69) | 9617(72->1) | 9769(73->37) | 9920(74->75) | 10054(75->96) | 10077(76->6) | 10278(77->94) | 10298(78->1) | 10481(79->71) | 10615(80->92) | 10708(81->72) | 10753(82->4) | 10955(83->93) | 11072(84->97) | 11105(85->17) | 11279(86->78) | 11393(87->79) | 11513(88->86) | 11630(89->90) | 11752(90->99) | 11773(91->7) | 11882(92->3) | 12045(93->53) | 12126(94->21) | 12294(95->76) | 12343(96->12) | 12533(97->89) | 12645(98->88) | 12700(99->30) | ]
cr the 1-th chain: [ 1->84->97->89->90->99->30->33->42->1 ] (#non-depot=8) {#cumul.=9}
cr the 2-th chain: [ 1->95->76->6->5->1 ] (#non-depot=4) {#cumul.=13}
cr the 3-th chain: [ 1->45->44->85->17->31->32->18->35->36->1 ] (#non-depot=9) {#cumul.=22}
cr the 4-th chain: [ 1->47->48->1 ] (#non-depot=2) {#cumul.=24}
cr the 5-th chain: [ 1->62->67->68->59->61->87->79->71->69->70->58->57->56->65->81->72->1 ] (#non-depot=16) {#cumul.=40}
cr the 6-th chain: [ 1->54->77->94->21->19->29->40->98->88->86->78->1 ] (#non-depot=11) {#cumul.=51}
cr the 7-th chain: [ 1->22->82->4->1 ] (#non-depot=3) {#cumul.=54}
cr the 8-th chain: [ 1->34->41->43->1 ] (#non-depot=3) {#cumul.=57}
cr the 9-th chain: [ 1->2->1 ] (#non-depot=1) {#cumul.=58}
cr the 10-th chain: [ 1->80->92->3->1 ] (#non-depot=3) {#cumul.=61}
cr the 11-th chain: [ 1->14->16->83->93->53->46->55->73->37->49->1 ] (#non-depot=10) {#cumul.=71}
cr the 12-th chain: [ 1->50->60->51->1 ] (#non-depot=3) {#cumul.=74}
cr the 13-th chain: [ 1->9->25->27->26->24->23->13->10->20->66->39->38->1 ] (#non-depot=12) {#cumul.=86}
cr the 14-th chain: [ 1->63->8->28->91->7->15->11->1 ] (#non-depot=7) {#cumul.=93}
cr the 15-th chain: [ 1->52->64->74->75->96->12->1 ] (#non-depot=6) {#cumul.=99}
c Latest Answer = 0 by 8 loops
c restarts              : 9603
c conflicts             : 1444294        (401 /sec)
c decisions             : 160239063      (0.00 % random) (44531 /sec)
c propagations          : 30662213831    (8521229 /sec)
c conflict literals     : 257041557      (30.09 % deleted)
c Memory used           : 3906.00 MB
c CPU time              : 3598.33 s
